
        $ From http://www.csplib.org/Problems/prob009/data/helmut.pdf
        $ Problem number 206
        $ Sequence length : 25
        language ESSENCE' 1.0
        letting sizemaster be 655
        letting sizes be sequence(10,14,15,21,25,26,31,40,51,53,54,57,65,83,84,86,151,152,173,193,194,215,216,246,288)
        